# ================================================================
# Orca input file for QMC test
# ================================================================
! RHF def2-SVP VeryTightSCF Bohrs
! PAL2

* xyz 0 1
 N     0.982657589101       0.996830535097       0.968484643104
 N    -0.982657589101      -0.987381904433       0.987381904433
 N    -0.982657589101       0.977933273768      -0.977933273768
 N     0.982657589101      -0.987381904433      -0.977933273768
*
