# ================================================================
# Orca input file for QMC test
# ================================================================
! RHF cc-pVTZ VeryTightSCF Bohrs
! PAL2

* xyz 0 1
 N        1.2141712962       -0.0000000000        1.1929119035
 N       -1.3902703010        0.8023367264        0.5821232275
 N        0.5808227702        0.8023367264       -1.3773978299
 N       -0.4047237654       -1.6046734527       -0.3976373012
*
