$comment0
$end

$rem
SYMMETRY              false
SYM_IGNORE            true
BASIS                 cc-pVDZ
METHOD                HF
SCF_CONVERGENCE       8
MAX_SCF_CYCLES        100
MOLDEN_FORMAT         true
PRINT_ORBITALS        1000
$end

$molecule
   1 2
   N       0.5200      0.5300      0.5100
   N      -0.5200     -0.5200      0.5200
   N      -0.5200      0.5200     -0.5200
   N       0.5200     -0.5200     -0.5200
$end
