$comment0
$end

$rem
SYMMETRY              off
BASIS                 def2-TZVP
METHOD                HF
SCF_GUESS             CORE
SCF_CONVERGENCE       8
MOLDEN_FORMAT         true
PRINT_ORBITALS        1000
$end

$molecule
   1 2
   N       0.5200      0.5300      0.5100
   N      -0.5200     -0.5200      0.5200
   N      -0.5200      0.5200     -0.5200
   N       0.5200     -0.5200     -0.5200
$end
