# ================================================================
# Orca input file for QMC test
# ================================================================
! UHF def2-SVP VeryTightSCF
! PAL2

* xyz 1 2
 N       0.5200      0.5300      0.5100
 N      -0.5200     -0.5200      0.5200
 N      -0.5200      0.5200     -0.5200
 N       0.5200     -0.5200     -0.5200
*
