$comment0
$end

$rem
SYMMETRY              false
SYM_IGNORE            true
BASIS                 general
METHOD                HF
SCF_CONVERGENCE       8
MOLDEN_FORMAT         true
PRINT_ORBITALS        1000
$end

$basis
   H 0
   D 3  1.0
     3.13248426462993979154  0.00645458627451019049
     1.51538934021491644704 -0.07085476853267763969
     0.90028999344114131523  0.22897857323582812477
   D 1  1.0
     0.50616845104080927617  1.0
   D 1  1.0
     0.35861735452268052581  1.0
   D 1  1.0
     0.09480033078848178684  1.0
   ****
   C 0
   D 3  1.0
     46.1353741080831021977  0.06678829454430918743
     20.2682182253994397729  0.23122499388298942708
     6.09459166525985575420  5.07995919900226523237
   D 1  1.0
     1.76930448839024293283  1.0
   D 1  1.0
     0.48622668729967585903  1.0
   D 1  1.0
     0.33390123157489603881  1.0
   D 1  1.0
     0.19249575927525763201  1.0
   ****
$end

$molecule
   0 1
   C       0.000000      0.000000      0.000000
   H       0.629118      0.629118      0.629118
   H      -0.629118     -0.629118      0.629118
   H       0.629118     -0.629118     -0.629118
   H      -0.629118      0.629118     -0.629118
$end
