# ================================================================
# Orca input file for CASINO with sf-orbitals
# ================================================================
! RHF STO-3G VeryTightSCF

%basis
newgto C
S  11
  1 312100.0000000              0.00000567
  2  46740.0000000              0.00004410
  3  10640.0000000              0.00023190
  4   3013.0000000              0.00097897
  5    982.8000000              0.00355163
  6    354.8000000              0.01144061
  7    138.4000000              0.03299855
  8     57.3500000              0.08405347
  9     24.9200000              0.18067613
 10     11.2300000              0.30491140
 11      5.2010000              0.34141570
S   1
  1      2.4260000              1.0000000
S   1
  1      0.9673000              1.0000000
S   1
  1      0.4456000              1.0000000
S   1
  1      0.1971000              1.0000000
S   1
  1      0.0863500              1.0000000
F   3
  1 60.0434382795337167843  0.11407461847341315449
  2 22.1675054852210094114  0.10668188273112432880
  3 4.80239596988874257441 15.21685292468813489609
F   1
  1 1.48339076950115698968  1.0
F   1
  1 0.46178952710355971802  1.0
F   1
  1 0.30249228070031443967  1.0
F   1
  1 0.09028412219748024402  1.0
end
newgto H
S   8
  1 13940.8000000              0.00000301
  2  3471.4300000              0.00000544
  3  1903.1800000              0.00001785
  4   623.2860000              0.00007195
  5   290.3600000              0.00012055
  6   126.5850000              0.00052527
  7    44.6955000              0.00201384
  8    16.0038000              0.00687086
S   1
  1     6.0805600              1.0000000
S   1
  1     2.4762200              1.0000000
S   1
  1     1.0757100              1.0000000
S   1
  1     0.4896820              1.0000000
S   1
  1     0.2297860              1.0000000
S   1
  1     0.1099655              1.0000000
S   1
  1     0.0523230              1.0000000
F   3
  1 10.1787046997423421309  0.00059884370424923467
  2 2.39526407180282360689 -0.09809424339784892573
  3 1.04864968631957502892  0.94847150361269593480
F   1
  1 0.72018956988162897143  1.0
F   1
  1 0.33281514997841096614  1.0
F   1
  1 0.12166473257337672303  1.0
end
end

* xyz 0 1
  C       0.000000      0.000000      0.000000
  H       0.629118      0.629118      0.629118
  H      -0.629118     -0.629118      0.629118
  H       0.629118     -0.629118     -0.629118
  H      -0.629118      0.629118     -0.629118
*
