# ================================================================
# Orca input file for CASINO with sd-orbitals
# ================================================================
! RHF STO-3G VeryTightSCF

%basis
newgto C
S  11
  1 312100.0000000              0.00000567
  2  46740.0000000              0.00004410
  3  10640.0000000              0.00023190
  4   3013.0000000              0.00097897
  5    982.8000000              0.00355163
  6    354.8000000              0.01144061
  7    138.4000000              0.03299855
  8     57.3500000              0.08405347
  9     24.9200000              0.18067613
 10     11.2300000              0.30491140
 11      5.2010000              0.34141570
S   1
  1      2.4260000              1.0000000
S   1
  1      0.9673000              1.0000000
S   1
  1      0.4456000              1.0000000
S   1
  1      0.1971000              1.0000000
S   1
  1      0.0863500              1.0000000
D   3
  1 46.1353741080831021977  0.06678829454430918743
  2 20.2682182253994397729  0.23122499388298942708
  3 6.09459166525985575420  5.07995919900226523237
D   1
  1 1.76930448839024293283  1.0
D   1
  1 0.48622668729967585903  1.0
D   1
  1 0.33390123157489603881  1.0
D   1
  1 0.19249575927525763201  1.0
end
newgto H
S   8
  1 13940.8000000              0.00000301
  2  3471.4300000              0.00000544
  3  1903.1800000              0.00001785
  4   623.2860000              0.00007195
  5   290.3600000              0.00012055
  6   126.5850000              0.00052527
  7    44.6955000              0.00201384
  8    16.0038000              0.00687086
S   1
  1     6.0805600              1.0000000
S   1
  1     2.4762200              1.0000000
S   1
  1     1.0757100              1.0000000
S   1
  1     0.4896820              1.0000000
S   1
  1     0.2297860              1.0000000
S   1
  1     0.1099655              1.0000000
S   1
  1     0.0523230              1.0000000
D   3
  1 3.13248426462993979154  0.00645458627451019049
  2 1.51538934021491644704 -0.07085476853267763969
  3 0.90028999344114131523  0.22897857323582812477
D   1
  1 0.50616845104080927617  1.0
D   1
  1 0.35861735452268052581  1.0
D   1
  1 0.09480033078848178684  1.0
end
end

* xyz 0 1
  C       0.000000      0.000000      0.000000
  H       0.629118      0.629118      0.629118
  H      -0.629118     -0.629118      0.629118
  H       0.629118     -0.629118     -0.629118
  H      -0.629118      0.629118     -0.629118
*
